20
1 0 21
2 0 53
2 1 34
3 0 25
3 1 3
3 2 15
4 0 53
4 1 28
4 2 9
4 3 29
5 0 23
5 1 27
5 2 54
5 3 30
5 4 50
6 0 30
6 1 20
6 2 26
6 3 51
6 4 2
6 5 7
7 0 14
7 1 38
7 2 31
7 3 35
7 4 23
7 5 27
7 6 30
8 0 1
8 1 1
8 2 26
8 3 29
8 4 58
8 5 53
8 6 20
8 7 47
9 0 13
9 1 37
9 2 4
9 3 29
9 4 37
9 5 20
9 6 16
9 7 7
9 8 56
10 0 25
10 1 25
10 2 35
10 3 23
10 4 14
10 5 53
10 6 35
10 7 31
10 8 3
10 9 21
11 0 38
11 1 46
11 2 9
11 3 5
11 4 3
11 5 33
11 6 17
11 7 10
11 8 54
11 9 53
11 10 47
12 0 52
12 1 46
12 2 6
12 3 2
12 4 30
12 5 30
12 6 40
12 7 56
12 8 20
12 9 33
12 10 40
12 11 42
13 0 49
13 1 37
13 2 7
13 3 26
13 4 57
13 5 33
13 6 16
13 7 37
13 8 27
13 9 45
13 10 48
13 11 2
13 12 9
14 0 32
14 1 6
14 2 40
14 3 59
14 4 25
14 5 24
14 6 18
14 7 10
14 8 52
14 9 25
14 10 18
14 11 28
14 12 13
14 13 32
15 0 20
15 1 3
15 2 56
15 3 60
15 4 29
15 5 46
15 6 9
15 7 29
15 8 38
15 9 11
15 10 19
15 11 52
15 12 12
15 13 47
15 14 18
16 0 24
16 1 43
16 2 48
16 3 21
16 4 28
16 5 42
16 6 57
16 7 51
16 8 21
16 9 52
16 10 58
16 11 28
16 12 10
16 13 29
16 14 26
16 15 26
17 0 41
17 1 44
17 2 41
17 3 56
17 4 21
17 5 2
17 6 36
17 7 51
17 8 26
17 9 58
17 10 27
17 11 21
17 12 34
17 13 4
17 14 22
17 15 60
17 16 4
18 0 41
18 1 52
18 2 32
18 3 25
18 4 46
18 5 41
18 6 19
18 7 2
18 8 5
18 9 43
18 10 14
18 11 37
18 12 27
18 13 52
18 14 22
18 15 49
18 16 48
18 17 8
19 0 6
19 1 35
19 2 13
19 3 10
19 4 56
19 5 52
19 6 23
19 7 14
19 8 36
19 9 17
19 10 58
19 11 9
19 12 14
19 13 55
19 14 41
19 15 48
19 16 14
19 17 37
19 18 32
